
630.0
630.0
630.0
630.0
1080.0
630.0
960.0
630.0
630.0
630.0
630.0
630.0
630.0
630.0
630.0
630.0
990.0
1080.0
630.0
630.0
630.0
630.0
780.0
930.0
930.0
630.0
630.0
630.0
630.0
870.0
630.0
630.0
630.0
630.0
630.0
630.0
630.0
630.0
630.0
630.0
630.0
960.0
630.0
630.0
630.0
630.0
630.0
630.0
630.0
630.0
690.0
630.0
960.0
630.0
900.0
1080.0
630.0
630.0
630.0
630.0
630.0
1020.0
630.0
630.0
630.0
630.0
630.0
630.0
630.0
990.0
840.0
630.0
630.0
630.0
630.0
630.0
630.0
630.0
630.0
630.0